
List of user-set options:

                                    Name   Value                used
                           compl_inf_tol = 1                     yes
                         constr_viol_tol = 1                     yes
                            dual_inf_tol = 1000                  yes
                           linear_solver = ma97                  yes
                              ma86_small = 1e-30                  no
                                  ma86_u = 0.0001                 no
                              ma97_order = best                  yes
                              ma97_small = 1e-30                 yes
                            ma97_switch1 = at_start              yes
                            ma97_switch2 = od_hd_reuse           yes
                                  ma97_u = 1e-06                 yes
                               ma97_umax = 0.5                   yes
                                max_iter = 1000                  yes
                    max_refinement_steps = 20                    yes
                    min_refinement_steps = 5                     yes
                                 mu_init = 1e-06                 yes
           mu_superlinear_decrease_power = 1.25                  yes
                   nlp_scaling_min_value = 1e-08                 yes
                        option_file_name = Preset_Case:_631_NCP.opt  yes
                             output_file = ./tmp/Preset_Case:_631_NCP.output  yes
                      print_user_options = yes                   yes
        required_infeasibility_reduction = 1                      no
                                     tol = 1e-08                 yes
                   warm_start_bound_frac = 1e-20                 yes
                   warm_start_bound_push = 1e-20                 yes
                   warm_start_init_point = yes                   yes
              warm_start_mult_bound_push = 1e-20                 yes
                warm_start_mult_init_max = 1e+40                 yes
             warm_start_slack_bound_frac = 1e-20                 yes
             warm_start_slack_bound_push = 1e-20                 yes

******************************************************************************
This program contains Ipopt, a library for large-scale nonlinear optimization.
 Ipopt is released as open source code under the Eclipse Public License (EPL).
         For more information visit http://projects.coin-or.org/Ipopt
******************************************************************************

This is Ipopt version 3.12.10, running with linear solver ma97.

Number of nonzeros in equality constraint Jacobian...:   117167
Number of nonzeros in inequality constraint Jacobian.:      213
Number of nonzeros in Lagrangian Hessian.............:    47513

Total number of variables............................:    29977
                     variables with only lower bounds:    11312
                variables with lower and upper bounds:    15135
                     variables with only upper bounds:        0
Total number of equality constraints.................:    29864
Total number of inequality constraints...............:       25
        inequality constraints with only lower bounds:        4
   inequality constraints with lower and upper bounds:        0
        inequality constraints with only upper bounds:       21

iter    objective    inf_pr   inf_du lg(mu)  ||d||  lg(rg) alpha_du alpha_pr  ls
   0 -1.3925532e-01 4.29e-01 2.00e+00  -6.0 0.00e+00    -  0.00e+00 0.00e+00   0
In iteration 0, 9 Slacks too small, adjusting variable bounds
   1 -1.3925532e-01 4.29e-01 6.79e+02  -6.0 1.06e+10    -  6.78e-14 3.48e-19h  1
   2 -1.3925397e-01 4.29e-01 6.81e+02  -6.0 1.55e+02    -  3.02e-07 2.89e-05f  1
   3 -1.3925393e-01 4.29e-01 6.85e+02  -6.0 1.35e+02    -  1.25e-02 1.13e-06h  2
   4 -1.3913063e-01 4.28e-01 6.82e+02  -6.0 1.54e+02    -  1.29e-04 2.69e-03h  1
   5 -1.3861626e-01 4.21e-01 6.67e+02  -6.0 1.46e+02    -  5.00e-03 1.62e-02h  1
   6 -1.3820485e-01 4.16e-01 6.57e+02  -6.0 1.40e+02    -  1.64e-02 1.33e-02h  1
   7 -1.3735282e-01 4.04e-01 6.43e+02  -6.0 1.36e+02    -  8.57e-03 2.79e-02h  3
   8 -1.3614783e-01 3.91e-01 6.49e+02  -6.0 1.26e+02    -  1.13e-01 3.23e-02h  3
   9 -1.3491847e-01 3.78e-01 6.32e+02  -6.0 1.10e+02    -  4.69e-02 3.44e-02h  3
iter    objective    inf_pr   inf_du lg(mu)  ||d||  lg(rg) alpha_du alpha_pr  ls
  10 -1.3353932e-01 3.64e-01 6.43e+02  -6.0 1.05e+02    -  1.46e-01 3.67e-02h  3
  11 -1.3184995e-01 3.49e-01 6.29e+02  -6.0 1.21e+02    -  1.32e-01 4.18e-02h  3
  12 -1.3026526e-01 3.35e-01 6.04e+02  -6.0 1.31e+02    -  1.26e-01 3.77e-02h  3
  13 -1.2744040e-01 3.13e-01 5.76e+02  -6.0 1.35e+02    -  1.36e-01 6.59e-02h  2
  14 -1.2537571e-01 2.98e-01 5.60e+02  -6.0 1.30e+02    -  1.28e-01 4.93e-02h  2
  15 -1.2238809e-01 2.76e-01 5.28e+02  -6.0 1.22e+02    -  1.67e-01 7.37e-02h  1
  16 -1.2056836e-01 2.60e-01 2.66e+04  -6.0 1.05e+02    -  4.04e-02 5.94e-02h  3
  17 -1.1931385e-01 2.48e-01 1.96e+05  -6.0 9.26e+01    -  2.25e-01 4.49e-02h  1
  18 -1.1704495e-01 2.28e-01 3.06e+05  -6.0 9.10e+01    -  2.39e-01 8.13e-02h  2
  19 -1.1545983e-01 2.14e-01 3.80e+05  -6.0 8.19e+01    -  2.82e-01 5.97e-02h  1
iter    objective    inf_pr   inf_du lg(mu)  ||d||  lg(rg) alpha_du alpha_pr  ls
  20 -1.1360745e-01 1.99e-01 4.01e+05  -6.0 8.18e+01    -  3.27e-01 6.84e-02h  3
  21 -1.1145033e-01 1.84e-01 3.76e+05  -6.0 9.70e+01    -  3.54e-01 7.73e-02h  3
  22 -1.1013074e-01 1.81e-01 3.42e+05  -6.0 1.41e+02    -  4.76e-01 4.46e-02h  4
  23 -1.0965220e-01 1.79e-01 3.46e+05  -6.0 2.96e+02    -  3.71e-01 1.32e-02h  5
  24 -1.0945232e-01 1.77e-01 4.57e+05  -6.0 5.28e+01  -4.0 3.69e-01 8.69e-03h  6
  25 -1.0926581e-01 1.76e-01 5.56e+05  -6.0 5.58e+01  -3.6 1.53e-01 8.88e-03h  6
  26 -1.0905668e-01 1.74e-01 5.47e+05  -6.0 5.62e+01  -4.1 1.54e-01 9.12e-03h  6
  27 -1.0885518e-01 1.73e-01 6.53e+05  -6.0 5.71e+01  -3.6 2.19e-01 9.53e-03h  6
  28 -1.0868083e-01 1.71e-01 1.00e+06  -6.0 5.47e+01  -3.2 3.63e-01 8.65e-03h  6
  29 -1.0867540e-01 1.71e-01 1.01e+06  -6.0 6.15e+01  -3.7 9.63e-02 2.57e-04h  1
iter    objective    inf_pr   inf_du lg(mu)  ||d||  lg(rg) alpha_du alpha_pr  ls
  30 -1.0848317e-01 1.70e-01 9.95e+05  -6.0 5.68e+01  -3.3 7.56e-03 9.30e-03h  6
  31 -1.0848257e-01 1.70e-01 9.96e+05  -6.0 6.20e+01  -3.7 3.43e-01 2.85e-05h  1
  32 -1.0827806e-01 1.68e-01 1.01e+06  -6.0 5.76e+01  -3.3 6.02e-02 9.86e-03h  6
  33 -1.0813680e-01 1.67e-01 9.85e+05  -6.0 6.34e+01  -3.8 3.44e-01 6.61e-03h  7
  34 -1.0791635e-01 1.65e-01 1.01e+06  -6.0 5.82e+01  -3.4 8.60e-02 1.07e-02h  6
  35 -1.0778885e-01 1.64e-01 9.69e+05  -6.0 6.41e+01  -3.8 4.31e-01 6.20e-03h  7
  36 -1.0766947e-01 1.63e-01 1.00e+06  -6.0 5.85e+01  -3.4 1.16e-01 5.89e-03h  7
  37 -1.0755751e-01 1.62e-01 9.51e+05  -6.0 6.35e+01  -3.9 4.65e-01 5.74e-03h  7
  38 -1.0743174e-01 1.61e-01 9.91e+05  -6.0 5.86e+01  -3.5 1.47e-01 6.30e-03h  7
  39 -1.0724066e-01 1.60e-01 9.44e+05  -6.0 7.57e+01  -3.9 2.72e-01 1.06e-02h  6
iter    objective    inf_pr   inf_du lg(mu)  ||d||  lg(rg) alpha_du alpha_pr  ls
  40 -1.0712587e-01 1.59e-01 1.01e+06  -6.0 5.83e+01  -3.5 2.76e-01 5.91e-03h  7
  41 -1.0690437e-01 1.57e-01 9.70e+05  -6.0 1.02e+02  -4.0 1.26e-01 1.34e-02h  5
  42 -1.0033787e-01 1.32e+01 6.99e+05  -6.0 5.80e+01  -3.6 7.42e-01 3.47e-01w  1
  43 -9.8581549e-02 1.62e+01 4.53e+05  -6.0 6.61e+01  -4.0 3.47e-01 3.32e-01w  1
  44 -9.8597332e-02 1.62e+01 3.51e+06  -6.0 5.26e+01  -3.6 5.22e-01 5.56e-03w  1
  45 -1.0680177e-01 1.57e-01 1.09e+06  -6.0 7.43e+01  -4.1 7.42e-01 5.42e-03h  6
  46 -1.0662322e-01 1.65e-01 1.07e+06  -6.0 5.92e+01  -3.7 6.06e-01 9.53e-03h  6
  47 -1.0641987e-01 1.74e-01 1.15e+06  -6.0 5.44e+01  -3.2 1.68e-01 1.08e-02h  6
  48 -1.0626865e-01 1.80e-01 1.03e+06  -6.0 5.76e+01  -3.7 8.60e-01 8.47e-03h  6
  49 -1.0609024e-01 1.87e-01 1.13e+06  -6.0 5.28e+01  -3.3 1.96e-01 9.66e-03h  6
iter    objective    inf_pr   inf_du lg(mu)  ||d||  lg(rg) alpha_du alpha_pr  ls
  50 -1.0596125e-01 1.91e-01 1.11e+06  -6.0 5.50e+01  -3.8 6.43e-01 7.64e-03h  6
  51 -1.0579971e-01 1.97e-01 1.40e+06  -6.0 5.17e+01  -3.3 3.26e-01 8.99e-03h  6
  52 -1.0563427e-01 2.04e-01 1.58e+06  -6.0 5.46e+01  -3.8 9.98e-01 1.02e-02h  5
  53 -1.0546017e-01 2.12e-01 3.16e+06  -6.0 5.23e+01  -3.4 1.00e+00 1.02e-02h  6
  54 -1.0537582e-01 2.14e-01 3.37e+06  -6.0 8.05e+01  -3.9 1.98e-01 4.94e-03h  4
  55 -1.0385050e-01 1.11e+00 5.34e+06  -6.0 5.52e+01  -3.4 8.02e-01 8.84e-02w  1
  56 -1.0220923e-01 1.89e+00 4.70e+06  -6.0 1.75e+02  -3.9 1.06e-01 1.16e-01w  1
  57 -1.0140502e-01 2.21e+00 8.50e+06  -6.0 5.07e+01  -3.5 5.91e-01 9.95e-02w  1
  58 -1.0528049e-01 2.17e-01 5.88e+06  -6.0 2.17e+02  -4.0 8.02e-01 5.52e-03h  4
  59 -1.0519869e-01 2.18e-01 7.51e+06  -6.0 6.40e+01  -3.5 3.86e-01 4.61e-03h  4
iter    objective    inf_pr   inf_du lg(mu)  ||d||  lg(rg) alpha_du alpha_pr  ls
  60 -1.0510271e-01 2.20e-01 7.43e+06  -6.0 2.62e+02  -4.0 9.33e-02 6.16e-03h  4
  61 -1.0500423e-01 2.22e-01 9.98e+06  -6.0 8.49e+01  -3.6 4.94e-01 5.31e-03h  5
  62 -1.0491316e-01 2.24e-01 9.79e+06  -6.0 3.52e+02  -4.1 5.18e-02 6.92e-03h  4
  63 -1.0480937e-01 2.26e-01 1.51e+07  -6.0 1.08e+02  -3.6 1.00e+00 5.56e-03h  6
  64 -1.0476456e-01 2.26e-01 1.47e+07  -6.0 4.32e+02  -4.1 4.60e-02 4.73e-03h  4
  65 -1.0462845e-01 2.31e-01 1.64e+07  -6.0 1.41e+02  -3.7 4.79e-01 7.61e-03h  5
  66 -1.0460870e-01 2.30e-01 1.58e+07  -6.0 3.33e+02  -4.2 6.01e-02 2.87e-03h  5
  67 -1.0448296e-01 2.35e-01 1.85e+07  -6.0 1.57e+02  -3.7 1.00e+00 7.81e-03h  5
  68 -1.0426423e-01 4.90e-01 1.72e+07  -6.0 2.85e+02  -4.2 8.84e-02 3.47e-02w  1
  69 -1.0507029e-01 4.40e+00 1.65e+07  -6.0 8.79e+02  -4.7 3.86e-02 2.47e-02w  1
iter    objective    inf_pr   inf_du lg(mu)  ||d||  lg(rg) alpha_du alpha_pr  ls
  70 -1.0504599e-01 4.56e+00 1.06e+07  -6.0 3.50e+02  -4.3 3.15e-01 1.90e-02w  1
  71 -1.0445562e-01 2.35e-01 1.75e+07  -6.0 3.90e+02  -4.8 8.84e-02 4.34e-03h  3
  72 -1.0443549e-01 2.36e-01 1.53e+07  -6.0 3.38e+02  -4.3 1.88e-01 4.30e-03h  5
  73 -1.0435946e-01 2.38e-01 1.69e+07  -6.0 2.04e+02  -3.9 1.00e+00 6.07e-03h  6
  74 -1.0433740e-01 2.38e-01 1.56e+07  -6.0 3.71e+02  -4.4 1.12e-01 2.69e-03h  6
  75 -1.0425068e-01 2.39e-01 1.55e+07  -6.0 2.21e+02  -3.9 3.54e-02 6.76e-03h  6
  76 -1.0412143e-01 2.42e-01 2.03e+07  -6.0 1.16e+02  -3.5 4.44e-01 8.69e-03h  7
  77 -1.0406120e-01 2.43e-01 1.92e+07  -6.0 2.63e+02  -4.0 2.65e-01 5.09e-03h  6
  78 -1.0404181e-01 2.43e-01 1.67e+07  -6.0 4.52e+02  -4.5 1.25e-01 3.81e-03h  5
  79 -1.0389507e-01 2.45e-01 1.64e+07  -6.0 3.29e+02  -4.1 8.36e-02 9.97e-03h  5
iter    objective    inf_pr   inf_du lg(mu)  ||d||  lg(rg) alpha_du alpha_pr  ls
  80 -1.0374020e-01 2.49e-01 1.76e+07  -6.0 1.39e+02  -3.6 1.66e-01 1.09e-02h  6
  81 -1.0295280e-01 3.43e-01 1.68e+07  -6.0 7.67e+02  -4.1 2.96e-02 5.09e-02w  1
  82 -1.0271466e-01 3.41e-01 1.58e+07  -6.0 3.94e+01  -2.8 4.37e-06 2.36e-02w  1
  83 -1.0146799e-01 1.90e+00 1.49e+07  -6.0 7.06e+01  -3.3 2.29e-01 1.48e-01w  1
  84 -1.0364178e-01 2.48e-01 1.74e+07  -6.0 2.32e+02  -3.7 2.96e-02 6.37e-03h  3
  85 -1.0353639e-01 2.51e-01 2.99e+07  -6.0 8.24e+01  -3.3 7.93e-01 7.99e-03h  7
  86 -1.0338207e-01 2.53e-01 2.94e+07  -6.0 2.23e+02  -3.8 9.06e-02 1.08e-02h  5
  87 -1.0321267e-01 2.60e-01 4.39e+07  -6.0 1.20e+02  -3.4 9.26e-01 1.27e-02h  6
  88 -1.0293665e-01 2.65e-01 4.24e+07  -6.0 2.75e+02  -3.8 6.15e-02 1.58e-02h  4
  89 -1.0275283e-01 2.70e-01 4.29e+07  -6.0 1.60e+02  -3.4 1.06e-01 1.37e-02h  5
iter    objective    inf_pr   inf_du lg(mu)  ||d||  lg(rg) alpha_du alpha_pr  ls
  90 -1.0258973e-01 2.73e-01 3.86e+07  -6.0 2.93e+02  -3.9 1.84e-01 1.25e-02h  4
  91 -1.0245126e-01 2.75e-01 3.98e+07  -6.0 1.66e+02  -3.5 1.77e-01 1.08e-02h  5
  92 -1.0232373e-01 2.77e-01 3.67e+07  -6.0 3.15e+02  -3.9 1.17e-01 1.11e-02h  4
  93 -1.0221420e-01 2.77e-01 4.21e+07  -6.0 1.77e+02  -3.5 1.00e+00 9.08e-03h  5
  94 -1.0136808e-01 4.79e-01 4.00e+07  -6.0 3.88e+02  -4.0 4.00e-02 6.90e-02w  1
  95 -9.9691633e-02 2.54e+00 2.79e+07  -6.0 2.06e+02  -3.6 7.52e-01 1.75e-01w  1
  96 -9.8231376e-02 2.46e+00 2.45e+07  -6.0 3.25e+02  -4.0 5.85e-02 1.30e-01w  1
  97 -1.0200267e-01 2.80e-01 4.08e+07  -6.0 2.26e+01  -2.7 4.00e-02 1.72e-02h  2
  98 -1.0189022e-01 2.82e-01 6.04e+07  -6.0 1.09e+02  -3.2 1.00e+00 1.00e-02h  6
  99 -1.0130722e-01 2.97e-01 5.79e+07  -6.0 2.70e+02  -3.7 4.70e-02 3.80e-02h  4
iter    objective    inf_pr   inf_du lg(mu)  ||d||  lg(rg) alpha_du alpha_pr  ls
 100 -1.0105286e-01 3.06e-01 6.91e+07  -6.0 1.48e+02  -3.2 1.00e+00 2.24e-02h  5
 101 -1.0064827e-01 3.06e-01 6.31e+07  -6.0 2.92e+02  -3.7 1.25e-01 2.81e-02h  4
 102 -1.0043019e-01 3.07e-01 6.42e+07  -6.0 1.65e+02  -3.3 1.00e+00 1.89e-02h  5
 103 -1.0030722e-01 3.05e-01 5.92e+07  -6.0 2.56e+02  -3.8 1.30e-01 8.90e-03h  6
 104 -1.0012957e-01 3.08e-01 5.85e+07  -6.0 1.60e+02  -3.3 3.55e-01 1.44e-02h  6
 105 -9.9971221e-02 3.12e-01 5.44e+07  -6.0 2.72e+02  -3.8 1.27e-01 1.31e-02h  4
 106 -9.9788151e-02 3.16e-01 5.32e+07  -6.0 1.54e+02  -3.4 1.00e+00 1.61e-02h  6
 107 -9.9435099e-02 3.33e-01 5.04e+07  -6.0 3.86e+02  -3.9 7.07e-02 4.04e-02w  1
 108 -9.1299118e-02 1.32e+01 1.59e+07  -6.0 1.34e+02  -3.4 1.00e+00 7.69e-01w  1
 109 -9.1299143e-02 1.32e+01 1.59e+07  -6.0 1.54e+02  -3.9 1.35e-01 2.22e-06w  1
iter    objective    inf_pr   inf_du lg(mu)  ||d||  lg(rg) alpha_du alpha_pr  ls
 110 -9.9611625e-02 3.17e-01 5.10e+07  -6.0 7.49e+01  -3.5 7.07e-02 2.02e-02h  1
 111 -9.9393174e-02 3.20e-01 6.64e+07  -6.0 8.12e+01  -3.1 9.18e-01 2.67e-02h  3
 112 -9.9097095e-02 3.30e-01 5.98e+07  -6.0 1.65e+02  -3.5 2.70e-01 2.71e-02h  3
 113 -9.8786986e-02 3.43e-01 7.00e+07  -6.0 8.64e+01  -3.1 1.00e+00 3.94e-02h  2
 114 -9.8584751e-02 3.44e-01 6.25e+07  -6.0 1.65e+02  -3.6 2.21e-01 2.01e-02h  3
 115 -9.8185679e-02 3.66e-01 6.46e+07  -6.0 8.48e+01  -3.2 1.00e+00 5.12e-02h  3
 116 -9.7851866e-02 3.81e-01 5.63e+07  -6.0 1.73e+02  -3.6 1.99e-01 4.01e-02h  4
 117 -9.7596027e-02 3.88e-01 5.25e+07  -6.0 7.25e+01  -3.2 1.00e+00 4.13e-02h  5
 118 -9.7440118e-02 3.87e-01 4.62e+07  -6.0 2.07e+02  -3.7 1.53e-01 2.80e-02h  4
 119 -9.6172255e-02 6.94e-02 1.60e+07  -6.0 6.90e+01  -3.3 7.30e-01 5.98e-01H  1
iter    objective    inf_pr   inf_du lg(mu)  ||d||  lg(rg) alpha_du alpha_pr  ls
 120r-9.6172255e-02 6.94e-02 1.00e+03  -1.6 0.00e+00  -3.7 0.00e+00 2.71e-07R  6
 121r-9.6140796e-02 6.93e-02 1.16e+03  -1.6 9.43e+02    -  1.95e-04 7.80e-05f  1
 122 -9.5122157e-02 6.04e-02 1.40e+07  -6.0 1.52e+01    -  3.79e-01 2.38e-01h  1
 123 -9.3863445e-02 9.30e-02 4.20e+07  -6.0 1.54e+01    -  1.30e-01 3.38e-01H  1
 124 -9.3728971e-02 8.69e-02 2.41e+07  -6.0 9.62e+00    -  4.95e-01 1.21e-01h  1
 125 -9.4032822e-02 3.60e-02 1.68e+07  -6.0 1.52e+01    -  6.36e-01 3.04e-01h  1
 126 -9.4962552e-02 7.59e-02 9.12e+06  -6.0 1.66e+01    -  7.75e-01 4.56e-01H  1
 127 -9.5345049e-02 5.60e-02 7.10e+06  -6.0 3.40e+01    -  8.36e-01 2.22e-01h  1
 128 -9.5431106e-02 5.16e-02 6.50e+06  -6.0 2.69e+00  -3.3 7.41e-01 8.42e-02h  1
 129 -9.6185946e-02 1.15e-01 1.02e+06  -6.0 5.57e+00  -3.8 1.39e-01 8.43e-01H  1
iter    objective    inf_pr   inf_du lg(mu)  ||d||  lg(rg) alpha_du alpha_pr  ls
 130 -9.6165241e-02 1.15e-01 1.93e+03  -6.0 3.53e+00  -4.3 6.75e-01 1.00e+00H  1
 131 -9.6168035e-02 6.74e-05 3.07e+00  -6.0 4.25e-02  -2.9 6.29e-01 1.00e+00h  1
 132 -9.6358328e-02 2.68e-04 1.61e+00  -6.0 3.65e-01  -3.4 6.36e-01 1.00e+00h  1
 133 -9.6493020e-02 2.83e-04 1.40e+00  -6.0 3.90e-01  -3.9 5.22e-01 6.48e-01h  1
 134 -9.6689592e-02 9.12e-04 2.39e+00  -6.0 1.59e+00  -4.4 1.67e-01 4.20e-01f  1
 135 -9.7059538e-02 4.47e-03 2.80e+00  -6.0 4.96e+00  -4.9 4.95e-01 2.28e-01f  1
 136 -9.7865078e-02 2.38e-02 1.63e+00  -6.0 1.41e+01  -5.3 8.64e-02 1.97e-01h  1
 137 -1.0427872e-01 4.41e-01 1.67e+01  -6.0 4.05e+01  -5.8 1.76e-01 6.14e-01f  1
 138 -1.0716273e-01 4.85e-01 6.68e+02  -6.0 9.45e+01  -6.3 3.56e-01 1.63e-01H  1
 139 -1.0825717e-01 4.35e-01 2.28e+02  -6.0 3.02e+01  -5.9 2.95e-02 1.28e-01h  2
iter    objective    inf_pr   inf_du lg(mu)  ||d||  lg(rg) alpha_du alpha_pr  ls
 140 -1.0947197e-01 3.22e-01 9.22e+02  -6.0 1.24e+01  -5.4 5.23e-01 2.92e-01h  1
 141 -1.0965969e-01 3.22e-01 1.13e+03  -6.0 3.38e+03  -5.9 8.57e-04 3.94e-04h  1
 142 -1.1020966e-01 3.22e-01 2.25e+03  -6.0 1.59e+02  -6.4 2.06e-01 2.12e-02h  1
 143 -1.1303290e-01 3.77e-01 4.55e+03  -6.0 4.02e+01  -6.0 9.95e-01 3.15e-01f  1
 144 -1.1527310e-01 4.69e-01 3.90e+03  -6.0 2.76e+02  -6.4 3.75e-03 5.52e-02h  2
 145 -1.1749164e-01 5.35e-01 2.78e+03  -6.0 6.90e+01  -6.0 7.41e-02 1.63e-01h  2
 146 -1.2182995e-01 4.28e-01 2.73e+02  -6.0 2.14e+01  -5.6 7.28e-01 7.78e-01h  1
 147 -1.2416263e-01 5.33e-01 2.92e+03  -6.0 8.47e+01  -6.1 5.23e-03 1.31e-01h  3
 148 -1.2945307e-01 7.07e-01 1.57e+04  -6.0 2.85e+01  -5.6 1.99e-01 7.92e-01h  1
 149 -1.3191734e-01 8.10e-01 1.31e+04  -6.0 1.88e+02  -6.1 7.93e-02 5.33e-02h  2
iter    objective    inf_pr   inf_du lg(mu)  ||d||  lg(rg) alpha_du alpha_pr  ls
 150 -1.3435660e-01 7.59e-01 1.89e+04  -6.0 4.76e+01  -5.7 5.87e-02 1.84e-01h  1
 151 -1.3540225e-01 6.84e-01 5.69e+02  -6.0 5.63e+01  -6.2 2.80e-01 1.23e-01h  1
 152 -1.3986588e-01 8.89e-01 2.94e+04  -6.0 1.34e+02  -6.6 5.94e-02 2.55e-01f  1
 153 -1.4012146e-01 8.86e-01 1.28e+06  -6.0 6.78e+02  -7.1 4.75e-04 9.63e-03h  1
 154 -1.4088128e-01 9.34e-01 1.26e+06  -6.0 6.37e+02  -7.6 8.95e-02 2.10e-02f  2
 155 -1.4206110e-01 9.11e-01 1.18e+06  -6.0 2.49e+02  -7.2 3.15e-02 6.26e-02h  2
 156 -1.4284438e-01 9.54e-01 1.15e+06  -6.0 6.10e+02  -7.6 1.27e-01 2.71e-02h  2
 157 -1.4365638e-01 9.14e-01 1.09e+06  -6.0 2.02e+02  -7.2 4.06e-01 5.31e-02h  1
 158 -1.4701577e-01 1.36e+00 9.08e+05  -6.0 4.84e+02  -7.7 2.72e-01 1.65e-01h  1
 159 -1.4917777e-01 1.06e+00 6.87e+05  -6.0 1.40e+02  -7.3 6.61e-01 2.43e-01h  1
iter    objective    inf_pr   inf_du lg(mu)  ||d||  lg(rg) alpha_du alpha_pr  ls
 160 -1.5072895e-01 9.24e-01 5.93e+05  -6.0 3.71e+02  -7.8 1.00e+00 1.37e-01h  1
 161 -1.5244067e-01 7.02e-01 4.17e+05  -6.0 1.53e+02  -7.3 1.00e+00 2.95e-01h  1
 162 -1.5517128e-01 1.63e+00 3.03e+05  -6.0 5.38e+02  -7.8 2.34e-01 2.72e-01h  1
 163 -1.5530328e-01 1.60e+00 2.98e+05  -6.0 3.19e+02  -7.4 1.00e-01 1.59e-02h  1
 164 -1.5652567e-01 1.25e+00 2.54e+05  -6.0 4.10e+02  -7.9 3.19e-01 1.47e-01h  1
 165 -1.6065465e-01 3.11e+00 2.06e+05  -6.0 2.06e+03  -8.3 3.23e-02 1.88e-01h  1
 166 -1.6209430e-01 3.01e+00 1.79e+05  -6.0 7.68e+02  -7.9 5.28e-01 1.32e-01h  1
 167 -1.6246752e-01 2.76e+00 1.63e+05  -6.0 2.63e+02  -7.5 1.98e-01 9.24e-02h  1
 168 -1.6447933e-01 3.25e+00 1.38e+05  -6.0 1.04e+03  -8.0 6.06e-01 1.52e-01h  1
 169 -1.6764385e-01 4.18e+00 1.33e+05  -6.0 7.76e+03  -8.4 2.07e-02 3.51e-02h  1
iter    objective    inf_pr   inf_du lg(mu)  ||d||  lg(rg) alpha_du alpha_pr  ls
 170 -1.6766057e-01 4.18e+00 1.33e+05  -6.0 6.05e+02  -8.0 7.13e-03 1.31e-03h  1
 171 -1.6958698e-01 4.03e+00 1.27e+05  -6.0 4.26e+03  -8.5 1.21e-03 4.03e-02f  1
 172 -1.6960576e-01 4.01e+00 1.27e+05  -6.0 8.05e+01  -7.2 2.51e-02 4.81e-03h  1
 173 -1.7182915e-01 2.33e+00 7.15e+04  -6.0 2.62e+02  -7.6 8.64e-02 4.36e-01f  1
 174 -1.7392118e-01 2.05e+00 6.17e+04  -6.0 8.05e+02  -8.1 7.68e-01 1.38e-01h  1
 175 -1.7551036e-01 2.46e+00 6.05e+04  -6.0 9.56e+03  -8.6 2.20e-02 1.97e-02h  1
 176 -1.7724633e-01 2.34e+00 5.43e+04  -6.0 8.17e+02  -8.2 1.00e+00 1.02e-01h  1
 177 -1.7953703e-01 3.47e+00 5.17e+04  -6.0 5.35e+03  -8.6 6.01e-03 4.75e-02h  1
 178 -1.8074440e-01 3.30e+00 4.82e+04  -6.0 8.26e+02  -8.2 3.06e-01 6.76e-02h  1
 179 -1.8377120e-01 2.47e+00 2.75e+04  -6.0 4.13e+02  -7.8 5.94e-01 4.30e-01h  1
iter    objective    inf_pr   inf_du lg(mu)  ||d||  lg(rg) alpha_du alpha_pr  ls
 180 -1.8329727e-01 1.32e+00 6.38e+04  -6.0 1.31e+02  -6.5 5.18e-02 5.85e-01h  1
 181 -1.8335353e-01 1.02e+00 4.70e+04  -6.0 6.92e+00  -5.1 5.16e-01 2.65e-01h  1
 182 -1.8348855e-01 1.41e-02 3.12e+02  -6.0 9.83e+00  -5.6 4.85e-01 1.00e+00h  1
 183 -1.8360673e-01 7.31e-03 1.91e+02  -6.0 9.33e+00  -6.1 9.30e-01 4.95e-01h  1
 184 -1.8379694e-01 5.58e-02 1.54e+02  -6.0 5.69e+01  -6.6 3.38e-01 2.00e-01h  1
 185 -1.8425787e-01 4.51e-02 1.23e+02  -6.0 7.09e+01  -7.0 5.58e-01 2.08e-01h  1
 186 -1.8451592e-01 4.24e-02 1.24e+02  -6.0 2.04e+02  -7.5 1.00e+00 6.05e-02h  1
 187 -1.8610802e-01 1.18e-01 1.27e+02  -6.0 5.65e+02  -8.0 1.00e+00 1.36e-01f  1
 188 -1.8842589e-01 4.46e-01 1.82e+02  -6.0 1.69e+03  -8.5 1.00e+00 7.92e-02h  1
 189 -1.9318755e-01 3.56e+00 1.81e+02  -6.0 1.05e+04  -8.9 4.82e-02 3.94e-02h  1
iter    objective    inf_pr   inf_du lg(mu)  ||d||  lg(rg) alpha_du alpha_pr  ls
 190 -2.0078040e-01 5.30e+00 1.48e+02  -6.0 1.37e+03  -8.5 7.64e-02 2.82e-01h  1
 191 -2.0444709e-01 5.21e+00 1.23e+02  -6.0 2.99e+03  -9.0 2.02e-01 7.75e-02h  1
 192 -2.0682081e-01 4.69e+00 1.15e+02  -6.0 8.84e+02  -8.6 2.97e-02 1.34e-01h  1
 193 -2.0976263e-01 4.42e+00 1.01e+02  -6.0 3.82e+03  -9.0 1.46e-01 7.83e-02h  1
 194 -2.1095538e-01 4.12e+00 9.71e+01  -6.0 1.77e+03  -8.6 1.57e-02 7.53e-02h  1
 195 -2.1086744e-01 3.66e+00 9.20e+01  -6.0 4.28e+01  -6.4 2.72e-02 1.11e-01h  1
 196 -2.1090666e-01 1.33e+00 9.99e+01  -6.0 5.13e+00  -6.0 5.23e-02 6.36e-01f  1
 197 -2.1100554e-01 4.01e-01 4.08e+01  -6.0 1.21e+01  -6.4 3.35e-01 1.00e+00h  1
 198 -2.1125190e-01 9.02e-01 8.91e-01  -6.0 4.77e+00  -6.0 1.00e+00 1.00e+00h  1
 199 -2.1195700e-01 6.31e+00 7.47e+00  -6.0 1.17e+01  -6.5 2.68e-01 1.00e+00h  1
iter    objective    inf_pr   inf_du lg(mu)  ||d||  lg(rg) alpha_du alpha_pr  ls
 200 -2.1201664e-01 5.94e+00 7.17e+00  -6.0 8.34e+00  -6.1 8.97e-01 6.13e-02h  1
 201 -2.1244001e-01 5.86e+00 5.66e+00  -6.0 1.37e+01  -6.5 8.44e-01 7.20e-01h  1
 202 -2.1286112e-01 7.06e+00 7.09e+00  -6.0 4.04e+01  -7.0 1.00e+00 3.62e-01h  1
 203 -2.1308303e-01 6.69e+00 1.96e+01  -6.0 1.08e+02  -7.5 1.00e+00 1.03e-01h  1
 204 -2.1490990e-01 3.71e+00 9.09e+00  -6.0 3.10e+02  -8.0 5.42e-01 4.45e-01h  1
 205 -2.1490588e-01 1.60e+00 1.71e+00  -6.0 1.96e+00  -5.7 1.00e+00 5.69e-01h  1
 206 -2.1495905e-01 1.03e-02 1.39e-02  -6.0 5.75e+00  -6.2 1.00e+00 9.93e-01h  1
 207 -2.1518380e-01 5.26e-03 2.08e-02  -6.0 1.78e+01  -6.7 1.00e+00 1.00e+00f  1
 208 -2.1578150e-01 4.65e-02 2.51e+00  -6.0 5.28e+01  -7.2 2.27e-01 1.00e+00h  1
 209 -2.1579135e-01 1.63e-02 1.94e-01  -6.0 2.27e+00  -5.8 1.00e+00 1.00e+00h  1
iter    objective    inf_pr   inf_du lg(mu)  ||d||  lg(rg) alpha_du alpha_pr  ls
 210 -2.1582064e-01 2.08e-01 3.56e+00  -6.0 7.05e+00  -6.3 5.32e-01 1.00e+00h  1
 211 -2.1604379e-01 3.17e+00 2.89e+01  -6.0 2.84e+01  -6.8 5.67e-01 1.00e+00h  1
 212 -2.1726086e-01 5.34e+00 3.27e+01  -6.0 9.65e+01  -7.3 4.28e-01 8.47e-01h  1
 213 -2.2096349e-01 9.74e+00 3.29e+02  -6.0 3.05e+02  -7.8 5.12e-01 8.87e-01h  1
 214 -2.2101593e-01 9.68e+00 1.21e+02  -6.0 4.61e+03  -7.3 1.05e-03 4.78e-04h  1
 215 -2.2100863e-01 6.79e+00 1.19e+02  -6.0 6.51e+02  -7.8 3.15e-02 9.66e-03f  1
 216 -2.2399781e-01 8.35e+00 1.23e+02  -6.0 9.39e+02  -8.3 3.99e-01 3.04e-01h  1
 217 -2.2438745e-01 2.02e+01 3.34e+02  -6.0 3.76e+02  -7.9 3.38e-01 1.07e-01h  1
 218 -2.2992510e-01 3.11e+01 1.19e+02  -6.0 1.03e+03  -8.3 3.92e-01 6.22e-01h  1
 219 -2.3010077e-01 3.35e+01 1.26e+02  -6.0 9.83e+02  -8.8 3.59e-02 4.25e-02h  1
iter    objective    inf_pr   inf_du lg(mu)  ||d||  lg(rg) alpha_du alpha_pr  ls
 220 -2.3032704e-01 3.21e+01 9.78e+02  -6.0 3.48e+02  -8.4 6.69e-01 5.28e-02h  1
 221 -2.3081060e-01 3.33e+01 8.41e+02  -6.0 7.16e+02  -8.9 1.25e-01 8.95e-02h  1
 222 -2.3334019e-01 1.69e+01 1.52e+02  -6.0 2.91e+02  -8.4 1.53e-01 9.67e-01h  1
 223 -2.3469072e-01 1.10e+01 6.71e+02  -6.0 6.52e+02  -8.9 4.87e-01 3.56e-01h  1
 224 -2.3558585e-01 1.48e+01 2.16e+03  -6.0 2.19e+03  -9.4 3.22e-01 1.07e-01h  1
 225 -2.3819188e-01 4.72e+00 5.48e+02  -6.0 7.65e+02  -9.0 5.83e-01 7.07e-01h  1
 226 -2.3870209e-01 1.23e+01 5.79e+03  -6.0 1.03e+04  -9.4 7.57e-02 2.39e-02h  1
 227 -2.3943095e-01 1.64e+01 6.47e+03  -6.0 4.78e+04  -9.9 1.03e-02 6.04e-03h  1
 228 -2.4091726e-01 1.49e+01 9.26e+03  -6.0 5.34e+03 -10.4 2.00e-01 9.29e-02h  1
 229 -2.4280506e-01 1.17e+01 2.32e+03  -6.0 5.89e+03 -10.9 1.69e-02 1.10e-01h  1
iter    objective    inf_pr   inf_du lg(mu)  ||d||  lg(rg) alpha_du alpha_pr  ls
 230 -2.4285296e-01 1.18e+01 1.51e+03  -6.0 2.62e+02  -8.6 3.62e-02 4.08e-02h  1
 231 -2.4299876e-01 1.13e+01 4.59e+03  -6.0 8.54e+02  -9.1 6.73e-02 4.69e-02h  1
 232 -2.4301558e-01 1.11e+01 2.82e+04  -6.0 2.71e+02  -8.7 1.81e-01 1.25e-02h  1
 233 -2.4560844e-01 5.25e+00 1.41e+07  -6.0 1.33e+03  -9.2 2.57e-03 5.06e-01h  1
 234 -2.4570707e-01 5.22e+00 1.36e+07  -6.0 5.98e+02  -8.7 4.20e-04 3.37e-02h  1
 235 -2.4621367e-01 1.76e+01 1.33e+07  -6.0 9.71e+03  -9.2 2.71e-02 2.46e-02h  1
 236 -2.4625629e-01 1.74e+01 1.32e+07  -6.0 1.30e+03  -9.7 6.73e-02 9.90e-03h  1
 237 -2.4784992e-01 1.47e+01 1.02e+07  -6.0 2.34e+03 -10.2 6.68e-02 2.26e-01f  1
 238 -2.4799728e-01 1.72e+01 9.91e+06  -6.0 2.13e+03  -9.7 1.42e-02 2.89e-02h  1
 239 -2.4848837e-01 1.56e+01 9.00e+06  -6.0 3.57e+03 -10.2 1.84e-01 9.17e-02h  1
iter    objective    inf_pr   inf_du lg(mu)  ||d||  lg(rg) alpha_du alpha_pr  ls
 240 -2.4856755e-01 1.29e+01 7.40e+06  -6.0 3.51e+02  -8.9 1.04e-01 1.77e-01h  1
 241 -2.4857702e-01 1.39e+01 7.25e+06  -6.0 1.18e+03  -9.4 2.03e-02 2.07e-02h  1
 242 -2.4869694e-01 7.07e+00 3.13e+06  -6.0 3.88e+02  -8.9 2.28e-01 5.68e-01h  1
 243 -2.4922110e-01 3.79e+00 1.59e+06  -6.0 1.38e+03  -9.4 2.87e-01 4.93e-01h  1
 244 -2.4923934e-01 4.00e+00 1.02e+06  -6.0 1.03e+03  -9.9 1.94e-01 3.61e-01h  1
 245 -2.4929976e-01 5.97e+01 9.95e+05  -6.0 7.58e+04 -10.4 7.23e-03 2.23e-02h  1
 246 -2.4932141e-01 7.98e+01 8.82e+05  -6.0 2.53e+04 -10.9 7.10e-02 1.14e-01H  1
 247 -2.4935264e-01 7.72e+01 8.53e+05  -6.0 4.51e+04    -  4.60e-06 3.29e-02h  1
 248 -2.4963501e-01 6.64e+01 6.16e+05  -6.0 7.98e+03    -  7.02e-02 2.79e-01h  1
 249 -2.4968255e-01 6.37e+01 1.96e+05  -6.0 3.05e+03    -  5.52e-02 6.87e-01h  1
iter    objective    inf_pr   inf_du lg(mu)  ||d||  lg(rg) alpha_du alpha_pr  ls
 250 -2.4964460e-01 3.71e+01 1.14e+05  -6.0 1.14e+04  -8.6 6.32e-01 4.19e-01H  1
 251 -2.4957930e-01 1.84e+01 5.67e+04  -6.0 6.43e+01  -8.2 1.07e-01 5.04e-01h  1
 252 -2.4950278e-01 3.63e+00 2.23e+02  -6.0 5.06e+02  -8.7 9.97e-01 1.00e+00h  1
 253 -2.4953582e-01 6.05e+01 1.76e+02  -6.0 1.00e+04    -  4.79e-02 2.12e-01h  1
 254 -2.4953903e-01 5.91e+01 1.72e+02  -6.0 2.06e+04    -  3.94e-04 2.31e-02H  1
 255 -2.4957028e-01 4.64e+01 1.29e+02  -6.0 1.67e+03    -  5.09e-01 2.49e-01h  1
 256 -2.4957272e-01 4.47e+01 1.92e+02  -6.0 2.62e+03    -  3.61e-01 3.93e-02h  1
 257 -2.4960457e-01 2.06e+01 9.58e+01  -6.0 3.25e+02  -9.1 9.16e-02 5.39e-01h  1
 258 -2.4965207e-01 4.26e+00 3.91e+01  -6.0 1.90e+02  -9.6 5.47e-01 7.96e-01h  1
 259 -2.4962808e-01 2.99e+00 2.72e+01  -6.0 9.31e+02    -  5.46e-01 4.65e-01h  1
iter    objective    inf_pr   inf_du lg(mu)  ||d||  lg(rg) alpha_du alpha_pr  ls
 260 -2.4960703e-01 1.09e+00 2.30e-01  -6.0 1.94e+02 -10.1 1.00e+00 1.00e+00h  1
 261 -2.4960742e-01 7.46e-01 2.60e+01  -6.0 9.25e+02 -10.6 5.01e-01 1.37e-01h  1
 262 -2.4960993e-01 5.18e-02 1.60e-02  -6.0 2.60e+01  -9.3 1.00e+00 1.00e+00h  1
 263 -2.4960926e-01 2.97e-01 5.25e+00  -6.0 3.71e+02  -9.7 1.00e+00 2.10e-01h  2
 264 -2.4960582e-01 5.13e-01 1.06e+01  -6.0 7.55e+02 -10.2 6.64e-01 2.61e-01h  2
 265 -2.4958236e-01 1.52e+00 4.78e-01  -6.0 2.98e+02  -9.8 9.57e-01 1.00e+00h  1
 266 -2.4959744e-01 7.91e-02 5.37e-02  -6.0 6.59e+01  -9.4 1.00e+00 1.00e+00h  1
 267 -2.4958996e-01 1.60e+00 8.29e-01  -6.0 3.03e+02  -9.8 1.00e+00 1.00e+00h  1
 268 -2.4957661e-01 4.97e-01 5.17e-01  -6.0 1.66e+02  -9.4 1.00e+00 1.00e+00h  1
 269 -2.4957667e-01 5.00e-01 8.55e+01  -6.0 1.79e+04    -  9.75e-02 5.72e-03h  2
iter    objective    inf_pr   inf_du lg(mu)  ||d||  lg(rg) alpha_du alpha_pr  ls
 270 -2.4957493e-01 6.17e-02 4.73e-02  -6.0 5.83e+01  -9.0 1.00e+00 1.00e+00h  1
 271 -2.4957381e-01 3.48e-01 3.03e+01  -6.0 2.39e+03    -  6.78e-01 7.19e-02h  2
 272 -2.4961947e-01 1.19e+00 6.82e-01  -6.0 2.71e+02  -9.5 1.00e+00 1.00e+00H  1
 273 -2.4962287e-01 2.53e+00 3.11e-02  -6.0 3.84e+02  -9.9 1.00e+00 1.00e+00H  1
 274 -2.4958227e-01 1.50e+00 2.21e+00  -6.0 2.15e+03 -10.4 1.88e-01 2.07e-01h  3
 275 -2.4954687e-01 4.32e-02 1.66e-01  -6.0 3.08e+02    -  1.00e+00 1.00e+00H  1
 276 -2.4954907e-01 4.13e-03 9.27e-03  -6.0 1.59e+01    -  1.00e+00 1.00e+00h  1
 277 -2.4954901e-01 1.19e-06 8.32e-07  -6.0 2.71e-01    -  1.00e+00 1.00e+00h  1
 278 -2.5016832e-01 4.30e+00 6.50e+01  -7.5 3.69e+03    -  9.58e-02 2.73e-01h  1
 279 -2.5047899e-01 3.69e+00 2.09e+01  -7.5 1.77e+03    -  4.24e-01 2.35e-01h  1
iter    objective    inf_pr   inf_du lg(mu)  ||d||  lg(rg) alpha_du alpha_pr  ls
 280 -2.5073053e-01 3.33e+00 7.09e+01  -7.5 1.98e+03    -  5.83e-01 2.48e-01h  1
 281 -2.5084958e-01 3.24e+00 6.82e+01  -7.5 2.15e+03    -  2.15e-01 1.55e-01h  1
 282 -2.5098949e-01 3.18e+00 7.62e+01  -7.5 2.15e+03    -  4.38e-01 2.24e-01h  1
 283 -2.5099165e-01 3.16e+00 9.91e+01  -7.5 3.82e+02  -9.1 3.69e-01 4.29e-03h  1
 284 -2.5125057e-01 1.49e+00 3.65e+01  -7.5 2.23e+02  -9.6 9.40e-01 7.20e-01h  1
 285 -2.5130956e-01 1.52e+00 2.77e+01  -7.5 2.38e+03    -  2.88e-01 2.48e-01h  1
 286 -2.5136976e-01 5.76e-01 7.46e+00  -7.5 3.15e+02 -10.0 9.24e-01 7.56e-01h  1
 287 -2.5137263e-01 5.76e-01 7.40e+00  -7.5 1.30e+04 -10.5 1.46e-03 6.15e-03h  1
 288 -2.5143110e-01 7.36e-01 4.87e+00  -7.5 2.06e+03    -  1.20e-02 3.38e-01h  1
 289 -2.5145142e-01 4.97e-01 3.27e+00  -7.5 4.16e+01  -7.4 2.20e-01 3.25e-01h  1
iter    objective    inf_pr   inf_du lg(mu)  ||d||  lg(rg) alpha_du alpha_pr  ls
 290 -2.5147800e-01 1.25e-01 8.64e-01  -7.5 7.79e+00  -7.9 1.00e+00 7.49e-01h  1
 291 -2.5148670e-01 3.23e-03 2.32e-02  -7.5 8.14e+00  -8.3 1.00e+00 9.74e-01h  1
 292 -2.5148847e-01 1.70e-03 3.60e-03  -7.5 1.52e+01  -8.8 1.00e+00 1.00e+00h  1
 293 -2.5149088e-01 1.41e-02 9.06e-04  -7.5 4.28e+01  -9.3 1.00e+00 1.00e+00h  1
 294 -2.5149735e-01 1.03e-01 6.10e-03  -7.5 1.20e+02  -9.8 1.00e+00 1.00e+00h  1
 295 -2.5151157e-01 5.38e-01 3.77e-02  -7.5 2.94e+02 -10.2 1.00e+00 1.00e+00h  1
 296 -2.5153230e-01 2.25e+00 2.20e-01  -7.5 5.39e+02 -10.7 2.88e-01 1.00e+00h  1
 297 -2.5154517e-01 1.99e+00 1.46e-01  -7.5 5.99e+02 -11.2 1.00e+00 1.00e+00h  1
 298 -2.5154699e-01 8.86e-01 4.28e-02  -7.5 3.56e+02 -11.7 1.00e+00 1.00e+00h  1
 299 -2.5154657e-01 1.56e+00 5.08e-03  -7.5 1.52e+02 -11.2 9.21e-01 1.00e+00h  1
iter    objective    inf_pr   inf_du lg(mu)  ||d||  lg(rg) alpha_du alpha_pr  ls
 300 -2.5154681e-01 8.18e-01 1.45e-01  -7.5 9.06e+02 -11.7 6.16e-01 2.50e-01h  3
 301 -2.5154806e-01 1.51e+00 1.46e-01  -7.5 9.99e+02 -11.3 7.00e-01 1.00e+00H  1
 302 -2.5154867e-01 4.16e+00 2.11e-02  -7.5 5.76e+02 -11.8 9.32e-01 1.00e+00h  1
 303 -2.5155221e-01 1.36e+01 7.36e-01  -7.5 2.69e+03 -12.3 4.86e-01 8.14e-01H  1
 304 -2.5155359e-01 5.97e+01 2.34e+00  -7.5 1.37e+04    -  2.82e-02 3.96e-01H  1
 305 -2.5155295e-01 6.00e+01 5.10e+00  -7.5 7.84e+03    -  9.88e-05 6.93e-02h  2
 306 -2.5155341e-01 9.21e-02 2.11e-01  -7.5 1.83e+01 -10.0 9.07e-01 1.00e+00h  1
 307 -2.5155443e-01 1.72e+01 1.44e-01  -7.5 2.54e+03    -  3.49e-01 4.20e-01h  2
 308 -2.5155649e-01 2.54e+01 1.04e+00  -7.5 1.77e+03    -  5.38e-01 1.00e+00H  1
 309 -2.5155580e-01 8.35e+00 1.20e-01  -7.5 7.16e+02    -  1.00e+00 1.00e+00h  1
iter    objective    inf_pr   inf_du lg(mu)  ||d||  lg(rg) alpha_du alpha_pr  ls
 310 -2.5155578e-01 9.69e-03 1.38e-04  -7.5 1.56e+01    -  1.00e+00 1.00e+00h  1
 311 -2.5155577e-01 1.77e-03 1.60e-05  -7.5 1.02e+01    -  1.00e+00 1.00e+00h  1
 312 -2.5155577e-01 6.37e-10 1.96e-11  -7.5 7.82e-03    -  1.00e+00 1.00e+00h  1
 313 -2.5155686e-01 3.83e-01 8.14e+00  -9.0 1.35e+03    -  5.68e-01 1.12e-01h  1
 314 -2.5156105e-01 5.73e+01 2.64e+00  -9.0 3.33e+03    -  4.27e-01 5.54e-01h  1
 315 -2.5156241e-01 4.07e+01 1.12e+02  -9.0 1.49e+03    -  8.93e-04 8.66e-01h  1
 316 -2.5156253e-01 4.64e-01 3.97e+00  -9.0 2.00e+02    -  1.02e-01 1.00e+00h  1
 317 -2.5156363e-01 5.07e+01 2.18e+00  -9.0 1.63e+03    -  4.57e-01 9.83e-01h  1
 318 -2.5156364e-01 2.51e+01 1.21e+01  -9.0 1.47e+03    -  1.01e-01 1.00e+00h  1
 319 -2.5156409e-01 1.10e-02 1.77e+00  -9.0 3.42e+01 -10.5 7.84e-02 1.00e+00h  1
iter    objective    inf_pr   inf_du lg(mu)  ||d||  lg(rg) alpha_du alpha_pr  ls
 320 -2.5156418e-01 7.30e-02 2.76e-02  -9.0 5.70e+01 -11.0 9.85e-01 1.00e+00h  1
 321 -2.5156433e-01 7.53e-01 1.84e-04  -9.0 1.83e+02 -11.5 1.00e+00 1.00e+00h  1
 322 -2.5156494e-01 1.08e+01 1.69e-03  -9.0 6.90e+02 -11.9 1.00e+00 1.00e+00h  1
 323 -2.5156515e-01 6.06e+00 4.34e-03  -9.0 3.28e+02 -11.5 1.00e+00 5.02e-01h  1
 324 -2.5156514e-01 1.09e+00 6.96e-05  -9.0 1.79e+02 -12.0 1.00e+00 1.00e+00h  1
 325 -2.5156540e-01 5.22e+00 6.79e-03  -9.0 6.49e+02 -12.5 2.36e-01 1.00e+00h  1
 326 -2.5156626e-01 9.21e+01 1.10e-02  -9.0 4.63e+03 -12.9 4.89e-01 5.78e-01h  1
 327 -2.5156631e-01 9.04e+01 4.00e-02  -9.0 1.65e+04 -13.4 1.46e-01 1.85e-02h  4
 328 -2.5156664e-01 7.68e+01 6.80e-02  -9.0 2.51e+03 -13.0 3.56e-01 1.88e-01h  1
 329 -2.5156672e-01 7.56e+01 1.23e-01  -9.0 1.90e+04 -13.5 1.45e-01 1.51e-02h  4
iter    objective    inf_pr   inf_du lg(mu)  ||d||  lg(rg) alpha_du alpha_pr  ls
 330 -2.5156852e-01 7.82e+01 1.69e-02  -9.0 2.44e+03 -13.0 1.00e+00 1.00e+00h  1
 331 -2.5156857e-01 7.81e+01 1.68e-02  -9.0 2.86e+04 -13.5 7.10e-03 5.34e-03h  2
 332 -2.5157019e-01 5.68e+01 1.78e+00  -9.0 1.85e+03 -12.2 5.19e-02 1.00e+00h  1
 333 -2.5157050e-01 4.92e+01 1.38e+00  -9.0 2.28e+03    -  1.65e-01 1.96e-01h  1
 334 -2.5157177e-01 5.24e+01 2.01e+01  -9.0 1.70e+03 -11.8 2.90e-02 1.00e+00h  1
 335 -2.5157192e-01 4.27e+00 5.70e-01  -9.0 5.33e+02 -12.2 5.40e-02 1.00e+00h  1
 336 -2.5157285e-01 4.84e+01 7.10e-02  -9.0 1.78e+03 -12.7 9.97e-02 1.00e+00h  1
 337 -2.5157388e-01 5.13e+01 5.33e-02  -9.0 5.34e+03 -12.3 2.56e-01 2.98e-01h  1
 338 -2.5157396e-01 5.04e+01 8.51e-01  -9.0 1.43e+04    -  1.01e-01 1.65e-02h  3
 339 -2.5157415e-01 4.87e+01 1.78e+00  -9.0 1.11e+04    -  1.98e-01 3.70e-02h  2
iter    objective    inf_pr   inf_du lg(mu)  ||d||  lg(rg) alpha_du alpha_pr  ls
 340 -2.5157446e-01 4.35e+01 4.45e+00  -9.0 4.98e+03    -  8.91e-01 1.23e-01h  1
 341 -2.5157493e-01 3.42e+01 1.89e+00  -9.0 1.64e+03    -  7.77e-01 4.28e-01h  1
 342 -2.5157502e-01 3.15e+01 2.81e+00  -9.0 1.49e+03    -  1.29e-02 9.47e-02h  1
 343 -2.5157534e-01 2.64e+01 1.74e+01  -9.0 1.91e+03    -  2.14e-02 2.66e-01h  1
 344 -2.5157558e-01 2.32e+01 1.35e+01  -9.0 1.65e+03    -  2.17e-02 2.13e-01h  1
 345 -2.5157588e-01 2.08e+01 1.36e+01  -9.0 1.67e+03    -  3.12e-02 2.88e-01h  1
 346 -2.5157616e-01 2.65e+01 6.19e+01  -9.0 1.66e+03    -  1.48e-02 5.55e-01h  1
 347 -2.5157648e-01 3.37e+01 5.55e+00  -9.0 1.25e+03    -  4.73e-02 1.00e+00h  1
 348 -2.5157659e-01 3.27e+01 4.76e+00  -9.0 2.98e+03    -  3.23e-01 1.23e-01h  2
 349 -2.5157677e-01 3.22e+01 3.28e+00  -9.0 2.11e+03    -  8.37e-01 2.95e-01h  1
iter    objective    inf_pr   inf_du lg(mu)  ||d||  lg(rg) alpha_du alpha_pr  ls
 350 -2.5157674e-01 7.93e+00 3.18e+00  -9.0 2.79e+02    -  2.15e-02 7.81e-01h  1
 351 -2.5157676e-01 3.67e-01 4.26e-03  -9.0 1.16e+02    -  9.94e-01 1.00e+00h  1
 352 -2.5157677e-01 3.43e-01 3.42e-02  -9.0 1.81e+02    -  1.00e+00 3.85e-01h  1
 353 -2.5157677e-01 6.55e-03 3.04e-07  -9.0 1.68e+01    -  1.00e+00 1.00e+00h  1
 354 -2.5157677e-01 9.24e-05 7.80e-09  -9.0 1.95e+00    -  1.00e+00 1.00e+00h  1
 355 -2.5157677e-01 7.60e-10 3.08e-14  -9.0 5.52e-03    -  1.00e+00 1.00e+00h  1

Number of Iterations....: 355

                                   (scaled)                 (unscaled)
Objective...............:  -2.5157676883439845e-01   -2.5157676883439845e-01
Dual infeasibility......:   3.0787337992222337e-14    3.0787337992222337e-14
Constraint violation....:   4.1567881428624679e-10    7.6033757068216801e-10
Complementarity.........:   9.0909092054823502e-10    9.0909092054823502e-10
Overall NLP error.......:   9.0909092054823502e-10    9.0909092054823502e-10


Number of objective function evaluations             = 973
Number of objective gradient evaluations             = 356
Number of equality constraint evaluations            = 973
Number of inequality constraint evaluations          = 974
Number of equality constraint Jacobian evaluations   = 357
Number of inequality constraint Jacobian evaluations = 357
Number of Lagrangian Hessian evaluations             = 355
Total CPU secs in IPOPT (w/o function evaluations)   =    928.453
Total CPU secs in NLP function evaluations           =     14.027

EXIT: Optimal Solution Found.
